c 0.009232282638549805 (encode time in sec)
p cnf 35 1048
1 2 3 4 0
1 2 -3 5 0
1 -2 3 4 0
1 -2 -3 5 0
-1 2 3 5 0
-1 2 -3 4 0
-1 -2 3 5 0
-1 -2 -3 4 0
6 7 8 9 0
6 7 -8 10 0
6 -7 8 9 0
6 -7 -8 10 0
-6 7 8 10 0
-6 7 -8 9 0
-6 -7 8 10 0
-6 -7 -8 9 0
11 12 13 14 0
11 12 -13 15 0
11 -12 13 14 0
11 -12 -13 15 0
-11 12 13 15 0
-11 12 -13 14 0
-11 -12 13 15 0
-11 -12 -13 14 0
16 17 18 1 2 3 6 7 8 20 0
16 17 18 1 2 3 6 7 -8 19 0
16 17 18 1 2 3 6 -7 8 20 0
16 17 18 1 2 3 6 -7 -8 22 0
16 17 18 1 2 3 -6 7 8 19 0
16 17 18 1 2 3 -6 7 -8 19 0
16 17 18 1 2 3 -6 -7 8 0
16 17 18 1 2 3 -6 -7 -8 0
16 17 18 1 2 -3 6 7 8 20 0
16 17 18 1 2 -3 6 7 -8 0
16 17 18 1 2 -3 6 -7 8 0
16 17 18 1 2 -3 6 -7 -8 0
16 17 18 1 2 -3 -6 7 8 0
16 17 18 1 2 -3 -6 7 -8 19 0
16 17 18 1 2 -3 -6 -7 8 0
16 17 18 1 2 -3 -6 -7 -8 0
16 17 18 1 -2 3 6 7 8 20 0
16 17 18 1 -2 3 6 7 -8 0
16 17 18 1 -2 3 6 -7 8 0
16 17 18 1 -2 3 6 -7 -8 0
16 17 18 1 -2 3 -6 7 8 0
16 17 18 1 -2 3 -6 7 -8 0
16 17 18 1 -2 3 -6 -7 8 0
16 17 18 1 -2 3 -6 -7 -8 19 0
16 17 18 1 -2 -3 6 7 8 20 0
16 17 18 1 -2 -3 6 7 -8 19 0
16 17 18 1 -2 -3 6 -7 8 0
16 17 18 1 -2 -3 6 -7 -8 0
16 17 18 1 -2 -3 -6 7 8 0
16 17 18 1 -2 -3 -6 7 -8 0
16 17 18 1 -2 -3 -6 -7 8 0
16 17 18 1 -2 -3 -6 -7 -8 0
16 17 18 -1 2 3 6 7 8 20 0
16 17 18 -1 2 3 6 7 -8 0
16 17 18 -1 2 3 6 -7 8 0
16 17 18 -1 2 3 6 -7 -8 0
16 17 18 -1 2 3 -6 7 8 0
16 17 18 -1 2 3 -6 7 -8 0
16 17 18 -1 2 3 -6 -7 8 19 0
16 17 18 -1 2 3 -6 -7 -8 0
16 17 18 -1 2 -3 6 7 8 20 0
16 17 18 -1 2 -3 6 7 -8 0
16 17 18 -1 2 -3 6 -7 8 0
16 17 18 -1 2 -3 6 -7 -8 0
16 17 18 -1 2 -3 -6 7 8 0
16 17 18 -1 2 -3 -6 7 -8 0
16 17 18 -1 2 -3 -6 -7 8 0
16 17 18 -1 2 -3 -6 -7 -8 0
16 17 18 -1 -2 3 6 7 8 0
16 17 18 -1 -2 3 6 7 -8 19 0
16 17 18 -1 -2 3 6 -7 8 0
16 17 18 -1 -2 3 6 -7 -8 19 0
16 17 18 -1 -2 3 -6 7 8 0
16 17 18 -1 -2 3 -6 7 -8 0
16 17 18 -1 -2 3 -6 -7 8 0
16 17 18 -1 -2 3 -6 -7 -8 0
16 17 18 -1 -2 -3 6 7 8 0
16 17 18 -1 -2 -3 6 7 -8 0
16 17 18 -1 -2 -3 6 -7 8 0
16 17 18 -1 -2 -3 6 -7 -8 19 0
16 17 18 -1 -2 -3 -6 7 8 0
16 17 18 -1 -2 -3 -6 7 -8 0
16 17 18 -1 -2 -3 -6 -7 8 19 0
16 17 18 -1 -2 -3 -6 -7 -8 0
16 17 -18 1 2 3 6 7 8 0
16 17 -18 1 2 3 6 7 -8 19 0
16 17 -18 1 2 3 6 -7 8 0
16 17 -18 1 2 3 6 -7 -8 0
16 17 -18 1 2 3 -6 7 8 19 0
16 17 -18 1 2 3 -6 7 -8 19 0
16 17 -18 1 2 3 -6 -7 8 0
16 17 -18 1 2 3 -6 -7 -8 0
16 17 -18 1 2 -3 6 7 8 0
16 17 -18 1 2 -3 6 7 -8 20 0
16 17 -18 1 2 -3 6 -7 8 20 0
16 17 -18 1 2 -3 6 -7 -8 22 0
16 17 -18 1 2 -3 -6 7 8 0
16 17 -18 1 2 -3 -6 7 -8 19 0
16 17 -18 1 2 -3 -6 -7 8 0
16 17 -18 1 2 -3 -6 -7 -8 0
16 17 -18 1 -2 3 6 7 8 0
16 17 -18 1 -2 3 6 7 -8 20 0
16 17 -18 1 -2 3 6 -7 8 22 0
16 17 -18 1 -2 3 6 -7 -8 0
16 17 -18 1 -2 3 -6 7 8 0
16 17 -18 1 -2 3 -6 7 -8 0
16 17 -18 1 -2 3 -6 -7 8 0
16 17 -18 1 -2 3 -6 -7 -8 19 0
16 17 -18 1 -2 -3 6 7 8 0
16 17 -18 1 -2 -3 6 7 -8 19 0
16 17 -18 1 -2 -3 6 -7 8 0
16 17 -18 1 -2 -3 6 -7 -8 0
16 17 -18 1 -2 -3 -6 7 8 0
16 17 -18 1 -2 -3 -6 7 -8 0
16 17 -18 1 -2 -3 -6 -7 8 0
16 17 -18 1 -2 -3 -6 -7 -8 0
16 17 -18 -1 2 3 6 7 8 0
16 17 -18 -1 2 3 6 7 -8 20 0
16 17 -18 -1 2 3 6 -7 8 22 0
16 17 -18 -1 2 3 6 -7 -8 0
16 17 -18 -1 2 3 -6 7 8 0
16 17 -18 -1 2 3 -6 7 -8 0
16 17 -18 -1 2 3 -6 -7 8 19 0
16 17 -18 -1 2 3 -6 -7 -8 0
16 17 -18 -1 2 -3 6 7 8 0
16 17 -18 -1 2 -3 6 7 -8 21 0
16 17 -18 -1 2 -3 6 -7 8 0
16 17 -18 -1 2 -3 6 -7 -8 0
16 17 -18 -1 2 -3 -6 7 8 0
16 17 -18 -1 2 -3 -6 7 -8 0
16 17 -18 -1 2 -3 -6 -7 8 0
16 17 -18 -1 2 -3 -6 -7 -8 0
16 17 -18 -1 -2 3 6 7 8 0
16 17 -18 -1 -2 3 6 7 -8 19 0
16 17 -18 -1 -2 3 6 -7 8 0
16 17 -18 -1 -2 3 6 -7 -8 19 0
16 17 -18 -1 -2 3 -6 7 8 0
16 17 -18 -1 -2 3 -6 7 -8 0
16 17 -18 -1 -2 3 -6 -7 8 0
16 17 -18 -1 -2 3 -6 -7 -8 0
16 17 -18 -1 -2 -3 6 7 8 22 0
16 17 -18 -1 -2 -3 6 7 -8 0
16 17 -18 -1 -2 -3 6 -7 8 0
16 17 -18 -1 -2 -3 6 -7 -8 19 0
16 17 -18 -1 -2 -3 -6 7 8 0
16 17 -18 -1 -2 -3 -6 7 -8 0
16 17 -18 -1 -2 -3 -6 -7 8 19 0
16 17 -18 -1 -2 -3 -6 -7 -8 0
16 -17 18 1 2 3 6 7 8 0
16 -17 18 1 2 3 6 7 -8 19 0
16 -17 18 1 2 3 6 -7 8 0
16 -17 18 1 2 3 6 -7 -8 22 0
16 -17 18 1 2 3 -6 7 8 19 0
16 -17 18 1 2 3 -6 7 -8 19 0
16 -17 18 1 2 3 -6 -7 8 22 0
16 -17 18 1 2 3 -6 -7 -8 0
16 -17 18 1 2 -3 6 7 8 0
16 -17 18 1 2 -3 6 7 -8 0
16 -17 18 1 2 -3 6 -7 8 0
16 -17 18 1 2 -3 6 -7 -8 22 0
16 -17 18 1 2 -3 -6 7 8 22 0
16 -17 18 1 2 -3 -6 7 -8 19 0
16 -17 18 1 2 -3 -6 -7 8 0
16 -17 18 1 2 -3 -6 -7 -8 0
16 -17 18 1 -2 3 6 7 8 0
16 -17 18 1 -2 3 6 7 -8 0
16 -17 18 1 -2 3 6 -7 8 22 0
16 -17 18 1 -2 3 6 -7 -8 0
16 -17 18 1 -2 3 -6 7 8 0
16 -17 18 1 -2 3 -6 7 -8 0
16 -17 18 1 -2 3 -6 -7 8 0
16 -17 18 1 -2 3 -6 -7 -8 19 0
16 -17 18 1 -2 -3 6 7 8 0
16 -17 18 1 -2 -3 6 7 -8 19 0
16 -17 18 1 -2 -3 6 -7 8 20 0
16 -17 18 1 -2 -3 6 -7 -8 0
16 -17 18 1 -2 -3 -6 7 8 0
16 -17 18 1 -2 -3 -6 7 -8 0
16 -17 18 1 -2 -3 -6 -7 8 0
16 -17 18 1 -2 -3 -6 -7 -8 0
16 -17 18 -1 2 3 6 7 8 0
16 -17 18 -1 2 3 6 7 -8 0
16 -17 18 -1 2 3 6 -7 8 22 0
16 -17 18 -1 2 3 6 -7 -8 21 0
16 -17 18 -1 2 3 -6 7 8 0
16 -17 18 -1 2 3 -6 7 -8 0
16 -17 18 -1 2 3 -6 -7 8 19 0
16 -17 18 -1 2 3 -6 -7 -8 0
16 -17 18 -1 2 -3 6 7 8 0
16 -17 18 -1 2 -3 6 7 -8 21 0
16 -17 18 -1 2 -3 6 -7 8 20 0
16 -17 18 -1 2 -3 6 -7 -8 0
16 -17 18 -1 2 -3 -6 7 8 0
16 -17 18 -1 2 -3 -6 7 -8 0
16 -17 18 -1 2 -3 -6 -7 8 0
16 -17 18 -1 2 -3 -6 -7 -8 0
16 -17 18 -1 -2 3 6 7 8 20 0
16 -17 18 -1 -2 3 6 7 -8 19 0
16 -17 18 -1 -2 3 6 -7 8 22 0
16 -17 18 -1 -2 3 6 -7 -8 19 0
16 -17 18 -1 -2 3 -6 7 8 0
16 -17 18 -1 -2 3 -6 7 -8 0
16 -17 18 -1 -2 3 -6 -7 8 0
16 -17 18 -1 -2 3 -6 -7 -8 0
16 -17 18 -1 -2 -3 6 7 8 0
16 -17 18 -1 -2 -3 6 7 -8 0
16 -17 18 -1 -2 -3 6 -7 8 0
16 -17 18 -1 -2 -3 6 -7 -8 19 0
16 -17 18 -1 -2 -3 -6 7 8 0
16 -17 18 -1 -2 -3 -6 7 -8 0
16 -17 18 -1 -2 -3 -6 -7 8 19 0
16 -17 18 -1 -2 -3 -6 -7 -8 0
16 -17 -18 1 2 3 6 7 8 0
16 -17 -18 1 2 3 6 7 -8 19 0
16 -17 -18 1 2 3 6 -7 8 0
16 -17 -18 1 2 3 6 -7 -8 0
16 -17 -18 1 2 3 -6 7 8 19 0
16 -17 -18 1 2 3 -6 7 -8 19 0
16 -17 -18 1 2 3 -6 -7 8 22 0
16 -17 -18 1 2 3 -6 -7 -8 24 0
16 -17 -18 1 2 -3 6 7 8 0
16 -17 -18 1 2 -3 6 7 -8 0
16 -17 -18 1 2 -3 6 -7 8 0
16 -17 -18 1 2 -3 6 -7 -8 0
16 -17 -18 1 2 -3 -6 7 8 0
16 -17 -18 1 2 -3 -6 7 -8 19 0
16 -17 -18 1 2 -3 -6 -7 8 0
16 -17 -18 1 2 -3 -6 -7 -8 0
16 -17 -18 1 -2 3 6 7 8 0
16 -17 -18 1 -2 3 6 7 -8 0
16 -17 -18 1 -2 3 6 -7 8 0
16 -17 -18 1 -2 3 6 -7 -8 0
16 -17 -18 1 -2 3 -6 7 8 25 0
16 -17 -18 1 -2 3 -6 7 -8 0
16 -17 -18 1 -2 3 -6 -7 8 0
16 -17 -18 1 -2 3 -6 -7 -8 19 0
16 -17 -18 1 -2 -3 6 7 8 0
16 -17 -18 1 -2 -3 6 7 -8 19 0
16 -17 -18 1 -2 -3 6 -7 8 0
16 -17 -18 1 -2 -3 6 -7 -8 22 0
16 -17 -18 1 -2 -3 -6 7 8 0
16 -17 -18 1 -2 -3 -6 7 -8 0
16 -17 -18 1 -2 -3 -6 -7 8 0
16 -17 -18 1 -2 -3 -6 -7 -8 0
16 -17 -18 -1 2 3 6 7 8 0
16 -17 -18 -1 2 3 6 7 -8 0
16 -17 -18 -1 2 3 6 -7 8 0
16 -17 -18 -1 2 3 6 -7 -8 21 0
16 -17 -18 -1 2 3 -6 7 8 0
16 -17 -18 -1 2 3 -6 7 -8 0
16 -17 -18 -1 2 3 -6 -7 8 19 0
16 -17 -18 -1 2 3 -6 -7 -8 0
16 -17 -18 -1 2 -3 6 7 8 0
16 -17 -18 -1 2 -3 6 7 -8 21 0
16 -17 -18 -1 2 -3 6 -7 8 0
16 -17 -18 -1 2 -3 6 -7 -8 22 0
16 -17 -18 -1 2 -3 -6 7 8 0
16 -17 -18 -1 2 -3 -6 7 -8 0
16 -17 -18 -1 2 -3 -6 -7 8 0
16 -17 -18 -1 2 -3 -6 -7 -8 0
16 -17 -18 -1 -2 3 6 7 8 0
16 -17 -18 -1 -2 3 6 7 -8 19 0
16 -17 -18 -1 -2 3 6 -7 8 22 0
16 -17 -18 -1 -2 3 6 -7 -8 19 0
16 -17 -18 -1 -2 3 -6 7 8 0
16 -17 -18 -1 -2 3 -6 7 -8 0
16 -17 -18 -1 -2 3 -6 -7 8 0
16 -17 -18 -1 -2 3 -6 -7 -8 0
16 -17 -18 -1 -2 -3 6 7 8 22 0
16 -17 -18 -1 -2 -3 6 7 -8 25 0
16 -17 -18 -1 -2 -3 6 -7 8 0
16 -17 -18 -1 -2 -3 6 -7 -8 19 0
16 -17 -18 -1 -2 -3 -6 7 8 0
16 -17 -18 -1 -2 -3 -6 7 -8 0
16 -17 -18 -1 -2 -3 -6 -7 8 19 0
16 -17 -18 -1 -2 -3 -6 -7 -8 0
-16 17 18 1 2 3 6 7 8 0
-16 17 18 1 2 3 6 7 -8 19 0
-16 17 18 1 2 3 6 -7 8 0
-16 17 18 1 2 3 6 -7 -8 0
-16 17 18 1 2 3 -6 7 8 19 0
-16 17 18 1 2 3 -6 7 -8 19 0
-16 17 18 1 2 3 -6 -7 8 0
-16 17 18 1 2 3 -6 -7 -8 24 0
-16 17 18 1 2 -3 6 7 8 0
-16 17 18 1 2 -3 6 7 -8 0
-16 17 18 1 2 -3 6 -7 8 0
-16 17 18 1 2 -3 6 -7 -8 0
-16 17 18 1 2 -3 -6 7 8 22 0
-16 17 18 1 2 -3 -6 7 -8 19 0
-16 17 18 1 2 -3 -6 -7 8 20 0
-16 17 18 1 2 -3 -6 -7 -8 0
-16 17 18 1 -2 3 6 7 8 0
-16 17 18 1 -2 3 6 7 -8 0
-16 17 18 1 -2 3 6 -7 8 0
-16 17 18 1 -2 3 6 -7 -8 20 0
-16 17 18 1 -2 3 -6 7 8 0
-16 17 18 1 -2 3 -6 7 -8 20 0
-16 17 18 1 -2 3 -6 -7 8 0
-16 17 18 1 -2 3 -6 -7 -8 19 0
-16 17 18 1 -2 -3 6 7 8 0
-16 17 18 1 -2 -3 6 7 -8 19 0
-16 17 18 1 -2 -3 6 -7 8 0
-16 17 18 1 -2 -3 6 -7 -8 22 0
-16 17 18 1 -2 -3 -6 7 8 0
-16 17 18 1 -2 -3 -6 7 -8 21 0
-16 17 18 1 -2 -3 -6 -7 8 0
-16 17 18 1 -2 -3 -6 -7 -8 0
-16 17 18 -1 2 3 6 7 8 0
-16 17 18 -1 2 3 6 7 -8 0
-16 17 18 -1 2 3 6 -7 8 0
-16 17 18 -1 2 3 6 -7 -8 0
-16 17 18 -1 2 3 -6 7 8 0
-16 17 18 -1 2 3 -6 7 -8 20 0
-16 17 18 -1 2 3 -6 -7 8 19 0
-16 17 18 -1 2 3 -6 -7 -8 0
-16 17 18 -1 2 -3 6 7 8 0
-16 17 18 -1 2 -3 6 7 -8 0
-16 17 18 -1 2 -3 6 -7 8 0
-16 17 18 -1 2 -3 6 -7 -8 22 0
-16 17 18 -1 2 -3 -6 7 8 22 0
-16 17 18 -1 2 -3 -6 7 -8 0
-16 17 18 -1 2 -3 -6 -7 8 0
-16 17 18 -1 2 -3 -6 -7 -8 0
-16 17 18 -1 -2 3 6 7 8 0
-16 17 18 -1 -2 3 6 7 -8 19 0
-16 17 18 -1 -2 3 6 -7 8 0
-16 17 18 -1 -2 3 6 -7 -8 19 0
-16 17 18 -1 -2 3 -6 7 8 0
-16 17 18 -1 -2 3 -6 7 -8 0
-16 17 18 -1 -2 3 -6 -7 8 0
-16 17 18 -1 -2 3 -6 -7 -8 0
-16 17 18 -1 -2 -3 6 7 8 0
-16 17 18 -1 -2 -3 6 7 -8 0
-16 17 18 -1 -2 -3 6 -7 8 20 0
-16 17 18 -1 -2 -3 6 -7 -8 19 0
-16 17 18 -1 -2 -3 -6 7 8 0
-16 17 18 -1 -2 -3 -6 7 -8 0
-16 17 18 -1 -2 -3 -6 -7 8 19 0
-16 17 18 -1 -2 -3 -6 -7 -8 0
-16 17 -18 1 2 3 6 7 8 0
-16 17 -18 1 2 3 6 7 -8 19 0
-16 17 -18 1 2 3 6 -7 8 0
-16 17 -18 1 2 3 6 -7 -8 0
-16 17 -18 1 2 3 -6 7 8 19 0
-16 17 -18 1 2 3 -6 7 -8 19 0
-16 17 -18 1 2 3 -6 -7 8 0
-16 17 -18 1 2 3 -6 -7 -8 26 0
-16 17 -18 1 2 -3 6 7 8 0
-16 17 -18 1 2 -3 6 7 -8 0
-16 17 -18 1 2 -3 6 -7 8 0
-16 17 -18 1 2 -3 6 -7 -8 0
-16 17 -18 1 2 -3 -6 7 8 0
-16 17 -18 1 2 -3 -6 7 -8 19 0
-16 17 -18 1 2 -3 -6 -7 8 0
-16 17 -18 1 2 -3 -6 -7 -8 0
-16 17 -18 1 -2 3 6 7 8 0
-16 17 -18 1 -2 3 6 7 -8 0
-16 17 -18 1 -2 3 6 -7 8 0
-16 17 -18 1 -2 3 6 -7 -8 0
-16 17 -18 1 -2 3 -6 7 8 21 0
-16 17 -18 1 -2 3 -6 7 -8 0
-16 17 -18 1 -2 3 -6 -7 8 20 0
-16 17 -18 1 -2 3 -6 -7 -8 19 0
-16 17 -18 1 -2 -3 6 7 8 0
-16 17 -18 1 -2 -3 6 7 -8 19 0
-16 17 -18 1 -2 -3 6 -7 8 0
-16 17 -18 1 -2 -3 6 -7 -8 0
-16 17 -18 1 -2 -3 -6 7 8 20 0
-16 17 -18 1 -2 -3 -6 7 -8 21 0
-16 17 -18 1 -2 -3 -6 -7 8 22 0
-16 17 -18 1 -2 -3 -6 -7 -8 0
-16 17 -18 -1 2 3 6 7 8 0
-16 17 -18 -1 2 3 6 7 -8 0
-16 17 -18 -1 2 3 6 -7 8 0
-16 17 -18 -1 2 3 6 -7 -8 21 0
-16 17 -18 -1 2 3 -6 7 8 20 0
-16 17 -18 -1 2 3 -6 7 -8 0
-16 17 -18 -1 2 3 -6 -7 8 19 0
-16 17 -18 -1 2 3 -6 -7 -8 0
-16 17 -18 -1 2 -3 6 7 8 0
-16 17 -18 -1 2 -3 6 7 -8 0
-16 17 -18 -1 2 -3 6 -7 8 0
-16 17 -18 -1 2 -3 6 -7 -8 0
-16 17 -18 -1 2 -3 -6 7 8 22 0
-16 17 -18 -1 2 -3 -6 7 -8 0
-16 17 -18 -1 2 -3 -6 -7 8 22 0
-16 17 -18 -1 2 -3 -6 -7 -8 0
-16 17 -18 -1 -2 3 6 7 8 0
-16 17 -18 -1 -2 3 6 7 -8 19 0
-16 17 -18 -1 -2 3 6 -7 8 0
-16 17 -18 -1 -2 3 6 -7 -8 19 0
-16 17 -18 -1 -2 3 -6 7 8 20 0
-16 17 -18 -1 -2 3 -6 7 -8 0
-16 17 -18 -1 -2 3 -6 -7 8 0
-16 17 -18 -1 -2 3 -6 -7 -8 0
-16 17 -18 -1 -2 -3 6 7 8 0
-16 17 -18 -1 -2 -3 6 7 -8 0
-16 17 -18 -1 -2 -3 6 -7 8 0
-16 17 -18 -1 -2 -3 6 -7 -8 19 0
-16 17 -18 -1 -2 -3 -6 7 8 0
-16 17 -18 -1 -2 -3 -6 7 -8 0
-16 17 -18 -1 -2 -3 -6 -7 8 19 0
-16 17 -18 -1 -2 -3 -6 -7 -8 0
-16 -17 18 1 2 3 6 7 8 0
-16 -17 18 1 2 3 6 7 -8 19 0
-16 -17 18 1 2 3 6 -7 8 0
-16 -17 18 1 2 3 6 -7 -8 0
-16 -17 18 1 2 3 -6 7 8 19 0
-16 -17 18 1 2 3 -6 7 -8 19 0
-16 -17 18 1 2 3 -6 -7 8 0
-16 -17 18 1 2 3 -6 -7 -8 0
-16 -17 18 1 2 -3 6 7 8 0
-16 -17 18 1 2 -3 6 7 -8 0
-16 -17 18 1 2 -3 6 -7 8 0
-16 -17 18 1 2 -3 6 -7 -8 0
-16 -17 18 1 2 -3 -6 7 8 0
-16 -17 18 1 2 -3 -6 7 -8 19 0
-16 -17 18 1 2 -3 -6 -7 8 0
-16 -17 18 1 2 -3 -6 -7 -8 0
-16 -17 18 1 -2 3 6 7 8 0
-16 -17 18 1 -2 3 6 7 -8 0
-16 -17 18 1 -2 3 6 -7 8 0
-16 -17 18 1 -2 3 6 -7 -8 0
-16 -17 18 1 -2 3 -6 7 8 0
-16 -17 18 1 -2 3 -6 7 -8 0
-16 -17 18 1 -2 3 -6 -7 8 0
-16 -17 18 1 -2 3 -6 -7 -8 19 0
-16 -17 18 1 -2 -3 6 7 8 0
-16 -17 18 1 -2 -3 6 7 -8 19 0
-16 -17 18 1 -2 -3 6 -7 8 0
-16 -17 18 1 -2 -3 6 -7 -8 0
-16 -17 18 1 -2 -3 -6 7 8 0
-16 -17 18 1 -2 -3 -6 7 -8 21 0
-16 -17 18 1 -2 -3 -6 -7 8 22 0
-16 -17 18 1 -2 -3 -6 -7 -8 0
-16 -17 18 -1 2 3 6 7 8 0
-16 -17 18 -1 2 3 6 7 -8 0
-16 -17 18 -1 2 3 6 -7 8 0
-16 -17 18 -1 2 3 6 -7 -8 0
-16 -17 18 -1 2 3 -6 7 8 0
-16 -17 18 -1 2 3 -6 7 -8 0
-16 -17 18 -1 2 3 -6 -7 8 19 0
-16 -17 18 -1 2 3 -6 -7 -8 22 0
-16 -17 18 -1 2 -3 6 7 8 0
-16 -17 18 -1 2 -3 6 7 -8 0
-16 -17 18 -1 2 -3 6 -7 8 0
-16 -17 18 -1 2 -3 6 -7 -8 0
-16 -17 18 -1 2 -3 -6 7 8 0
-16 -17 18 -1 2 -3 -6 7 -8 20 0
-16 -17 18 -1 2 -3 -6 -7 8 22 0
-16 -17 18 -1 2 -3 -6 -7 -8 0
-16 -17 18 -1 -2 3 6 7 8 0
-16 -17 18 -1 -2 3 6 7 -8 19 0
-16 -17 18 -1 -2 3 6 -7 8 0
-16 -17 18 -1 -2 3 6 -7 -8 19 0
-16 -17 18 -1 -2 3 -6 7 8 0
-16 -17 18 -1 -2 3 -6 7 -8 20 0
-16 -17 18 -1 -2 3 -6 -7 8 22 0
-16 -17 18 -1 -2 3 -6 -7 -8 0
-16 -17 18 -1 -2 -3 6 7 8 0
-16 -17 18 -1 -2 -3 6 7 -8 21 0
-16 -17 18 -1 -2 -3 6 -7 8 0
-16 -17 18 -1 -2 -3 6 -7 -8 19 0
-16 -17 18 -1 -2 -3 -6 7 8 0
-16 -17 18 -1 -2 -3 -6 7 -8 22 0
-16 -17 18 -1 -2 -3 -6 -7 8 19 0
-16 -17 18 -1 -2 -3 -6 -7 -8 0
-16 -17 -18 1 2 3 6 7 8 0
-16 -17 -18 1 2 3 6 7 -8 19 0
-16 -17 -18 1 2 3 6 -7 8 0
-16 -17 -18 1 2 3 6 -7 -8 0
-16 -17 -18 1 2 3 -6 7 8 19 0
-16 -17 -18 1 2 3 -6 7 -8 19 0
-16 -17 -18 1 2 3 -6 -7 8 0
-16 -17 -18 1 2 3 -6 -7 -8 0
-16 -17 -18 1 2 -3 6 7 8 0
-16 -17 -18 1 2 -3 6 7 -8 0
-16 -17 -18 1 2 -3 6 -7 8 0
-16 -17 -18 1 2 -3 6 -7 -8 0
-16 -17 -18 1 2 -3 -6 7 8 0
-16 -17 -18 1 2 -3 -6 7 -8 19 0
-16 -17 -18 1 2 -3 -6 -7 8 0
-16 -17 -18 1 2 -3 -6 -7 -8 20 0
-16 -17 -18 1 -2 3 6 7 8 0
-16 -17 -18 1 -2 3 6 7 -8 0
-16 -17 -18 1 -2 3 6 -7 8 0
-16 -17 -18 1 -2 3 6 -7 -8 0
-16 -17 -18 1 -2 3 -6 7 8 0
-16 -17 -18 1 -2 3 -6 7 -8 0
-16 -17 -18 1 -2 3 -6 -7 8 0
-16 -17 -18 1 -2 3 -6 -7 -8 19 0
-16 -17 -18 1 -2 -3 6 7 8 0
-16 -17 -18 1 -2 -3 6 7 -8 19 0
-16 -17 -18 1 -2 -3 6 -7 8 0
-16 -17 -18 1 -2 -3 6 -7 -8 0
-16 -17 -18 1 -2 -3 -6 7 8 0
-16 -17 -18 1 -2 -3 -6 7 -8 0
-16 -17 -18 1 -2 -3 -6 -7 8 0
-16 -17 -18 1 -2 -3 -6 -7 -8 20 0
-16 -17 -18 -1 2 3 6 7 8 0
-16 -17 -18 -1 2 3 6 7 -8 0
-16 -17 -18 -1 2 3 6 -7 8 0
-16 -17 -18 -1 2 3 6 -7 -8 0
-16 -17 -18 -1 2 3 -6 7 8 0
-16 -17 -18 -1 2 3 -6 7 -8 0
-16 -17 -18 -1 2 3 -6 -7 8 19 0
-16 -17 -18 -1 2 3 -6 -7 -8 22 0
-16 -17 -18 -1 2 -3 6 7 8 0
-16 -17 -18 -1 2 -3 6 7 -8 0
-16 -17 -18 -1 2 -3 6 -7 8 0
-16 -17 -18 -1 2 -3 6 -7 -8 0
-16 -17 -18 -1 2 -3 -6 7 8 0
-16 -17 -18 -1 2 -3 -6 7 -8 0
-16 -17 -18 -1 2 -3 -6 -7 8 0
-16 -17 -18 -1 2 -3 -6 -7 -8 20 0
-16 -17 -18 -1 -2 3 6 7 8 0
-16 -17 -18 -1 -2 3 6 7 -8 19 0
-16 -17 -18 -1 -2 3 6 -7 8 0
-16 -17 -18 -1 -2 3 6 -7 -8 19 0
-16 -17 -18 -1 -2 3 -6 7 8 0
-16 -17 -18 -1 -2 3 -6 7 -8 0
-16 -17 -18 -1 -2 3 -6 -7 8 22 0
-16 -17 -18 -1 -2 3 -6 -7 -8 20 0
-16 -17 -18 -1 -2 -3 6 7 8 0
-16 -17 -18 -1 -2 -3 6 7 -8 0
-16 -17 -18 -1 -2 -3 6 -7 8 0
-16 -17 -18 -1 -2 -3 6 -7 -8 19 0
-16 -17 -18 -1 -2 -3 -6 7 8 20 0
-16 -17 -18 -1 -2 -3 -6 7 -8 22 0
-16 -17 -18 -1 -2 -3 -6 -7 8 19 0
-16 -17 -18 -1 -2 -3 -6 -7 -8 20 0
27 28 29 11 12 13 16 17 18 31 0
27 28 29 11 12 13 16 17 -18 30 0
27 28 29 11 12 13 16 -17 18 0
27 28 29 11 12 13 16 -17 -18 0
27 28 29 11 12 13 -16 17 18 0
27 28 29 11 12 13 -16 17 -18 0
27 28 29 11 12 13 -16 -17 18 0
27 28 29 11 12 13 -16 -17 -18 0
27 28 29 11 12 -13 16 17 18 31 0
27 28 29 11 12 -13 16 17 -18 30 0
27 28 29 11 12 -13 16 -17 18 0
27 28 29 11 12 -13 16 -17 -18 0
27 28 29 11 12 -13 -16 17 18 0
27 28 29 11 12 -13 -16 17 -18 30 0
27 28 29 11 12 -13 -16 -17 18 0
27 28 29 11 12 -13 -16 -17 -18 0
27 28 29 11 -12 13 16 17 18 31 0
27 28 29 11 -12 13 16 17 -18 0
27 28 29 11 -12 13 16 -17 18 0
27 28 29 11 -12 13 16 -17 -18 0
27 28 29 11 -12 13 -16 17 18 0
27 28 29 11 -12 13 -16 17 -18 30 0
27 28 29 11 -12 13 -16 -17 18 0
27 28 29 11 -12 13 -16 -17 -18 0
27 28 29 11 -12 -13 16 17 18 31 0
27 28 29 11 -12 -13 16 17 -18 34 0
27 28 29 11 -12 -13 16 -17 18 30 0
27 28 29 11 -12 -13 16 -17 -18 0
27 28 29 11 -12 -13 -16 17 18 0
27 28 29 11 -12 -13 -16 17 -18 30 0
27 28 29 11 -12 -13 -16 -17 18 0
27 28 29 11 -12 -13 -16 -17 -18 0
27 28 29 -11 12 13 16 17 18 31 0
27 28 29 -11 12 13 16 17 -18 31 0
27 28 29 -11 12 13 16 -17 18 0
27 28 29 -11 12 13 16 -17 -18 30 0
27 28 29 -11 12 13 -16 17 18 30 0
27 28 29 -11 12 13 -16 17 -18 0
27 28 29 -11 12 13 -16 -17 18 0
27 28 29 -11 12 13 -16 -17 -18 0
27 28 29 -11 12 -13 16 17 18 31 0
27 28 29 -11 12 -13 16 17 -18 0
27 28 29 -11 12 -13 16 -17 18 0
27 28 29 -11 12 -13 16 -17 -18 0
27 28 29 -11 12 -13 -16 17 18 0
27 28 29 -11 12 -13 -16 17 -18 0
27 28 29 -11 12 -13 -16 -17 18 0
27 28 29 -11 12 -13 -16 -17 -18 30 0
27 28 29 -11 -12 13 16 17 18 0
27 28 29 -11 -12 13 16 17 -18 0
27 28 29 -11 -12 13 16 -17 18 0
27 28 29 -11 -12 13 16 -17 -18 0
27 28 29 -11 -12 13 -16 17 18 30 0
27 28 29 -11 -12 13 -16 17 -18 0
27 28 29 -11 -12 13 -16 -17 18 0
27 28 29 -11 -12 13 -16 -17 -18 0
27 28 29 -11 -12 -13 16 17 18 0
27 28 29 -11 -12 -13 16 17 -18 0
27 28 29 -11 -12 -13 16 -17 18 0
27 28 29 -11 -12 -13 16 -17 -18 30 0
27 28 29 -11 -12 -13 -16 17 18 0
27 28 29 -11 -12 -13 -16 17 -18 0
27 28 29 -11 -12 -13 -16 -17 18 0
27 28 29 -11 -12 -13 -16 -17 -18 0
27 28 -29 11 12 13 16 17 18 0
27 28 -29 11 12 13 16 17 -18 30 0
27 28 -29 11 12 13 16 -17 18 31 0
27 28 -29 11 12 13 16 -17 -18 32 0
27 28 -29 11 12 13 -16 17 18 0
27 28 -29 11 12 13 -16 17 -18 0
27 28 -29 11 12 13 -16 -17 18 0
27 28 -29 11 12 13 -16 -17 -18 0
27 28 -29 11 12 -13 16 17 18 0
27 28 -29 11 12 -13 16 17 -18 30 0
27 28 -29 11 12 -13 16 -17 18 0
27 28 -29 11 12 -13 16 -17 -18 0
27 28 -29 11 12 -13 -16 17 18 0
27 28 -29 11 12 -13 -16 17 -18 30 0
27 28 -29 11 12 -13 -16 -17 18 0
27 28 -29 11 12 -13 -16 -17 -18 0
27 28 -29 11 -12 13 16 17 18 0
27 28 -29 11 -12 13 16 17 -18 31 0
27 28 -29 11 -12 13 16 -17 18 0
27 28 -29 11 -12 13 16 -17 -18 0
27 28 -29 11 -12 13 -16 17 18 0
27 28 -29 11 -12 13 -16 17 -18 30 0
27 28 -29 11 -12 13 -16 -17 18 0
27 28 -29 11 -12 13 -16 -17 -18 0
27 28 -29 11 -12 -13 16 17 18 0
27 28 -29 11 -12 -13 16 17 -18 34 0
27 28 -29 11 -12 -13 16 -17 18 30 0
27 28 -29 11 -12 -13 16 -17 -18 0
27 28 -29 11 -12 -13 -16 17 18 0
27 28 -29 11 -12 -13 -16 17 -18 30 0
27 28 -29 11 -12 -13 -16 -17 18 0
27 28 -29 11 -12 -13 -16 -17 -18 0
27 28 -29 -11 12 13 16 17 18 0
27 28 -29 -11 12 13 16 17 -18 0
27 28 -29 -11 12 13 16 -17 18 0
27 28 -29 -11 12 13 16 -17 -18 30 0
27 28 -29 -11 12 13 -16 17 18 30 0
27 28 -29 -11 12 13 -16 17 -18 0
27 28 -29 -11 12 13 -16 -17 18 0
27 28 -29 -11 12 13 -16 -17 -18 0
27 28 -29 -11 12 -13 16 17 18 0
27 28 -29 -11 12 -13 16 17 -18 31 0
27 28 -29 -11 12 -13 16 -17 18 0
27 28 -29 -11 12 -13 16 -17 -18 0
27 28 -29 -11 12 -13 -16 17 18 0
27 28 -29 -11 12 -13 -16 17 -18 0
27 28 -29 -11 12 -13 -16 -17 18 0
27 28 -29 -11 12 -13 -16 -17 -18 30 0
27 28 -29 -11 -12 13 16 17 18 31 0
27 28 -29 -11 -12 13 16 17 -18 0
27 28 -29 -11 -12 13 16 -17 18 0
27 28 -29 -11 -12 13 16 -17 -18 0
27 28 -29 -11 -12 13 -16 17 18 30 0
27 28 -29 -11 -12 13 -16 17 -18 0
27 28 -29 -11 -12 13 -16 -17 18 0
27 28 -29 -11 -12 13 -16 -17 -18 0
27 28 -29 -11 -12 -13 16 17 18 31 0
27 28 -29 -11 -12 -13 16 17 -18 0
27 28 -29 -11 -12 -13 16 -17 18 0
27 28 -29 -11 -12 -13 16 -17 -18 30 0
27 28 -29 -11 -12 -13 -16 17 18 0
27 28 -29 -11 -12 -13 -16 17 -18 0
27 28 -29 -11 -12 -13 -16 -17 18 0
27 28 -29 -11 -12 -13 -16 -17 -18 0
27 -28 29 11 12 13 16 17 18 0
27 -28 29 11 12 13 16 17 -18 30 0
27 -28 29 11 12 13 16 -17 18 0
27 -28 29 11 12 13 16 -17 -18 35 0
27 -28 29 11 12 13 -16 17 18 31 0
27 -28 29 11 12 13 -16 17 -18 0
27 -28 29 11 12 13 -16 -17 18 0
27 -28 29 11 12 13 -16 -17 -18 0
27 -28 29 11 12 -13 16 17 18 0
27 -28 29 11 12 -13 16 17 -18 30 0
27 -28 29 11 12 -13 16 -17 18 31 0
27 -28 29 11 12 -13 16 -17 -18 31 0
27 -28 29 11 12 -13 -16 17 18 35 0
27 -28 29 11 12 -13 -16 17 -18 30 0
27 -28 29 11 12 -13 -16 -17 18 0
27 -28 29 11 12 -13 -16 -17 -18 0
27 -28 29 11 -12 13 16 17 18 0
27 -28 29 11 -12 13 16 17 -18 0
27 -28 29 11 -12 13 16 -17 18 31 0
27 -28 29 11 -12 13 16 -17 -18 0
27 -28 29 11 -12 13 -16 17 18 0
27 -28 29 11 -12 13 -16 17 -18 30 0
27 -28 29 11 -12 13 -16 -17 18 0
27 -28 29 11 -12 13 -16 -17 -18 0
27 -28 29 11 -12 -13 16 17 18 0
27 -28 29 11 -12 -13 16 17 -18 0
27 -28 29 11 -12 -13 16 -17 18 30 0
27 -28 29 11 -12 -13 16 -17 -18 0
27 -28 29 11 -12 -13 -16 17 18 0
27 -28 29 11 -12 -13 -16 17 -18 30 0
27 -28 29 11 -12 -13 -16 -17 18 0
27 -28 29 11 -12 -13 -16 -17 -18 0
27 -28 29 -11 12 13 16 17 18 0
27 -28 29 -11 12 13 16 17 -18 0
27 -28 29 -11 12 13 16 -17 18 34 0
27 -28 29 -11 12 13 16 -17 -18 30 0
27 -28 29 -11 12 13 -16 17 18 30 0
27 -28 29 -11 12 13 -16 17 -18 0
27 -28 29 -11 12 13 -16 -17 18 0
27 -28 29 -11 12 13 -16 -17 -18 0
27 -28 29 -11 12 -13 16 17 18 0
27 -28 29 -11 12 -13 16 17 -18 0
27 -28 29 -11 12 -13 16 -17 18 0
27 -28 29 -11 12 -13 16 -17 -18 0
27 -28 29 -11 12 -13 -16 17 18 0
27 -28 29 -11 12 -13 -16 17 -18 0
27 -28 29 -11 12 -13 -16 -17 18 0
27 -28 29 -11 12 -13 -16 -17 -18 30 0
27 -28 29 -11 -12 13 16 17 18 0
27 -28 29 -11 -12 13 16 17 -18 31 0
27 -28 29 -11 -12 13 16 -17 18 0
27 -28 29 -11 -12 13 16 -17 -18 0
27 -28 29 -11 -12 13 -16 17 18 30 0
27 -28 29 -11 -12 13 -16 17 -18 0
27 -28 29 -11 -12 13 -16 -17 18 0
27 -28 29 -11 -12 13 -16 -17 -18 0
27 -28 29 -11 -12 -13 16 17 18 0
27 -28 29 -11 -12 -13 16 17 -18 31 0
27 -28 29 -11 -12 -13 16 -17 18 0
27 -28 29 -11 -12 -13 16 -17 -18 30 0
27 -28 29 -11 -12 -13 -16 17 18 0
27 -28 29 -11 -12 -13 -16 17 -18 0
27 -28 29 -11 -12 -13 -16 -17 18 0
27 -28 29 -11 -12 -13 -16 -17 -18 0
27 -28 -29 11 12 13 16 17 18 0
27 -28 -29 11 12 13 16 17 -18 30 0
27 -28 -29 11 12 13 16 -17 18 0
27 -28 -29 11 12 13 16 -17 -18 0
27 -28 -29 11 12 13 -16 17 18 0
27 -28 -29 11 12 13 -16 17 -18 35 0
27 -28 -29 11 12 13 -16 -17 18 0
27 -28 -29 11 12 13 -16 -17 -18 0
27 -28 -29 11 12 -13 16 17 18 0
27 -28 -29 11 12 -13 16 17 -18 30 0
27 -28 -29 11 12 -13 16 -17 18 0
27 -28 -29 11 12 -13 16 -17 -18 0
27 -28 -29 11 12 -13 -16 17 18 32 0
27 -28 -29 11 12 -13 -16 17 -18 30 0
27 -28 -29 11 12 -13 -16 -17 18 0
27 -28 -29 11 12 -13 -16 -17 -18 0
27 -28 -29 11 -12 13 16 17 18 0
27 -28 -29 11 -12 13 16 17 -18 0
27 -28 -29 11 -12 13 16 -17 18 0
27 -28 -29 11 -12 13 16 -17 -18 31 0
27 -28 -29 11 -12 13 -16 17 18 0
27 -28 -29 11 -12 13 -16 17 -18 30 0
27 -28 -29 11 -12 13 -16 -17 18 0
27 -28 -29 11 -12 13 -16 -17 -18 0
27 -28 -29 11 -12 -13 16 17 18 0
27 -28 -29 11 -12 -13 16 17 -18 0
27 -28 -29 11 -12 -13 16 -17 18 30 0
27 -28 -29 11 -12 -13 16 -17 -18 31 0
27 -28 -29 11 -12 -13 -16 17 18 0
27 -28 -29 11 -12 -13 -16 17 -18 30 0
27 -28 -29 11 -12 -13 -16 -17 18 0
27 -28 -29 11 -12 -13 -16 -17 -18 0
27 -28 -29 -11 12 13 16 17 18 0
27 -28 -29 -11 12 13 16 17 -18 0
27 -28 -29 -11 12 13 16 -17 18 34 0
27 -28 -29 -11 12 13 16 -17 -18 30 0
27 -28 -29 -11 12 13 -16 17 18 30 0
27 -28 -29 -11 12 13 -16 17 -18 0
27 -28 -29 -11 12 13 -16 -17 18 0
27 -28 -29 -11 12 13 -16 -17 -18 0
27 -28 -29 -11 12 -13 16 17 18 0
27 -28 -29 -11 12 -13 16 17 -18 0
27 -28 -29 -11 12 -13 16 -17 18 31 0
27 -28 -29 -11 12 -13 16 -17 -18 0
27 -28 -29 -11 12 -13 -16 17 18 0
27 -28 -29 -11 12 -13 -16 17 -18 0
27 -28 -29 -11 12 -13 -16 -17 18 0
27 -28 -29 -11 12 -13 -16 -17 -18 30 0
27 -28 -29 -11 -12 13 16 17 18 0
27 -28 -29 -11 -12 13 16 17 -18 0
27 -28 -29 -11 -12 13 16 -17 18 31 0
27 -28 -29 -11 -12 13 16 -17 -18 0
27 -28 -29 -11 -12 13 -16 17 18 30 0
27 -28 -29 -11 -12 13 -16 17 -18 0
27 -28 -29 -11 -12 13 -16 -17 18 0
27 -28 -29 -11 -12 13 -16 -17 -18 0
27 -28 -29 -11 -12 -13 16 17 18 0
27 -28 -29 -11 -12 -13 16 17 -18 0
27 -28 -29 -11 -12 -13 16 -17 18 34 0
27 -28 -29 -11 -12 -13 16 -17 -18 30 0
27 -28 -29 -11 -12 -13 -16 17 18 0
27 -28 -29 -11 -12 -13 -16 17 -18 0
27 -28 -29 -11 -12 -13 -16 -17 18 0
27 -28 -29 -11 -12 -13 -16 -17 -18 0
-27 28 29 11 12 13 16 17 18 0
-27 28 29 11 12 13 16 17 -18 30 0
-27 28 29 11 12 13 16 -17 18 0
-27 28 29 11 12 13 16 -17 -18 0
-27 28 29 11 12 13 -16 17 18 0
-27 28 29 11 12 13 -16 17 -18 32 0
-27 28 29 11 12 13 -16 -17 18 31 0
-27 28 29 11 12 13 -16 -17 -18 0
-27 28 29 11 12 -13 16 17 18 0
-27 28 29 11 12 -13 16 17 -18 30 0
-27 28 29 11 12 -13 16 -17 18 0
-27 28 29 11 12 -13 16 -17 -18 0
-27 28 29 11 12 -13 -16 17 18 0
-27 28 29 11 12 -13 -16 17 -18 30 0
-27 28 29 11 12 -13 -16 -17 18 0
-27 28 29 11 12 -13 -16 -17 -18 0
-27 28 29 11 -12 13 16 17 18 0
-27 28 29 11 -12 13 16 17 -18 0
-27 28 29 11 -12 13 16 -17 18 0
-27 28 29 11 -12 13 16 -17 -18 0
-27 28 29 11 -12 13 -16 17 18 31 0
-27 28 29 11 -12 13 -16 17 -18 30 0
-27 28 29 11 -12 13 -16 -17 18 0
-27 28 29 11 -12 13 -16 -17 -18 0
-27 28 29 11 -12 -13 16 17 18 0
-27 28 29 11 -12 -13 16 17 -18 0
-27 28 29 11 -12 -13 16 -17 18 30 0
-27 28 29 11 -12 -13 16 -17 -18 0
-27 28 29 11 -12 -13 -16 17 18 31 0
-27 28 29 11 -12 -13 -16 17 -18 30 0
-27 28 29 11 -12 -13 -16 -17 18 0
-27 28 29 11 -12 -13 -16 -17 -18 0
-27 28 29 -11 12 13 16 17 18 0
-27 28 29 -11 12 13 16 17 -18 0
-27 28 29 -11 12 13 16 -17 18 0
-27 28 29 -11 12 13 16 -17 -18 30 0
-27 28 29 -11 12 13 -16 17 18 30 0
-27 28 29 -11 12 13 -16 17 -18 0
-27 28 29 -11 12 13 -16 -17 18 0
-27 28 29 -11 12 13 -16 -17 -18 0
-27 28 29 -11 12 -13 16 17 18 0
-27 28 29 -11 12 -13 16 17 -18 0
-27 28 29 -11 12 -13 16 -17 18 0
-27 28 29 -11 12 -13 16 -17 -18 31 0
-27 28 29 -11 12 -13 -16 17 18 0
-27 28 29 -11 12 -13 -16 17 -18 0
-27 28 29 -11 12 -13 -16 -17 18 0
-27 28 29 -11 12 -13 -16 -17 -18 30 0
-27 28 29 -11 -12 13 16 17 18 0
-27 28 29 -11 -12 13 16 17 -18 0
-27 28 29 -11 -12 13 16 -17 18 0
-27 28 29 -11 -12 13 16 -17 -18 31 0
-27 28 29 -11 -12 13 -16 17 18 30 0
-27 28 29 -11 -12 13 -16 17 -18 0
-27 28 29 -11 -12 13 -16 -17 18 0
-27 28 29 -11 -12 13 -16 -17 -18 0
-27 28 29 -11 -12 -13 16 17 18 0
-27 28 29 -11 -12 -13 16 17 -18 0
-27 28 29 -11 -12 -13 16 -17 18 34 0
-27 28 29 -11 -12 -13 16 -17 -18 30 0
-27 28 29 -11 -12 -13 -16 17 18 0
-27 28 29 -11 -12 -13 -16 17 -18 0
-27 28 29 -11 -12 -13 -16 -17 18 0
-27 28 29 -11 -12 -13 -16 -17 -18 0
-27 28 -29 11 12 13 16 17 18 0
-27 28 -29 11 12 13 16 17 -18 30 0
-27 28 -29 11 12 13 16 -17 18 0
-27 28 -29 11 12 13 16 -17 -18 0
-27 28 -29 11 12 13 -16 17 18 0
-27 28 -29 11 12 13 -16 17 -18 0
-27 28 -29 11 12 13 -16 -17 18 0
-27 28 -29 11 12 13 -16 -17 -18 0
-27 28 -29 11 12 -13 16 17 18 0
-27 28 -29 11 12 -13 16 17 -18 30 0
-27 28 -29 11 12 -13 16 -17 18 0
-27 28 -29 11 12 -13 16 -17 -18 0
-27 28 -29 11 12 -13 -16 17 18 0
-27 28 -29 11 12 -13 -16 17 -18 30 0
-27 28 -29 11 12 -13 -16 -17 18 0
-27 28 -29 11 12 -13 -16 -17 -18 0
-27 28 -29 11 -12 13 16 17 18 0
-27 28 -29 11 -12 13 16 17 -18 0
-27 28 -29 11 -12 13 16 -17 18 0
-27 28 -29 11 -12 13 16 -17 -18 0
-27 28 -29 11 -12 13 -16 17 18 0
-27 28 -29 11 -12 13 -16 17 -18 30 0
-27 28 -29 11 -12 13 -16 -17 18 31 0
-27 28 -29 11 -12 13 -16 -17 -18 0
-27 28 -29 11 -12 -13 16 17 18 0
-27 28 -29 11 -12 -13 16 17 -18 0
-27 28 -29 11 -12 -13 16 -17 18 30 0
-27 28 -29 11 -12 -13 16 -17 -18 0
-27 28 -29 11 -12 -13 -16 17 18 0
-27 28 -29 11 -12 -13 -16 17 -18 30 0
-27 28 -29 11 -12 -13 -16 -17 18 31 0
-27 28 -29 11 -12 -13 -16 -17 -18 0
-27 28 -29 -11 12 13 16 17 18 0
-27 28 -29 -11 12 13 16 17 -18 0
-27 28 -29 -11 12 13 16 -17 18 0
-27 28 -29 -11 12 13 16 -17 -18 30 0
-27 28 -29 -11 12 13 -16 17 18 30 0
-27 28 -29 -11 12 13 -16 17 -18 31 0
-27 28 -29 -11 12 13 -16 -17 18 0
-27 28 -29 -11 12 13 -16 -17 -18 0
-27 28 -29 -11 12 -13 16 17 18 0
-27 28 -29 -11 12 -13 16 17 -18 0
-27 28 -29 -11 12 -13 16 -17 18 0
-27 28 -29 -11 12 -13 16 -17 -18 0
-27 28 -29 -11 12 -13 -16 17 18 31 0
-27 28 -29 -11 12 -13 -16 17 -18 31 0
-27 28 -29 -11 12 -13 -16 -17 18 31 0
-27 28 -29 -11 12 -13 -16 -17 -18 30 0
-27 28 -29 -11 -12 13 16 17 18 0
-27 28 -29 -11 -12 13 16 17 -18 0
-27 28 -29 -11 -12 13 16 -17 18 0
-27 28 -29 -11 -12 13 16 -17 -18 0
-27 28 -29 -11 -12 13 -16 17 18 30 0
-27 28 -29 -11 -12 13 -16 17 -18 0
-27 28 -29 -11 -12 13 -16 -17 18 0
-27 28 -29 -11 -12 13 -16 -17 -18 0
-27 28 -29 -11 -12 -13 16 17 18 0
-27 28 -29 -11 -12 -13 16 17 -18 0
-27 28 -29 -11 -12 -13 16 -17 18 0
-27 28 -29 -11 -12 -13 16 -17 -18 30 0
-27 28 -29 -11 -12 -13 -16 17 18 35 0
-27 28 -29 -11 -12 -13 -16 17 -18 35 0
-27 28 -29 -11 -12 -13 -16 -17 18 0
-27 28 -29 -11 -12 -13 -16 -17 -18 0
-27 -28 29 11 12 13 16 17 18 0
-27 -28 29 11 12 13 16 17 -18 30 0
-27 -28 29 11 12 13 16 -17 18 0
-27 -28 29 11 12 13 16 -17 -18 0
-27 -28 29 11 12 13 -16 17 18 0
-27 -28 29 11 12 13 -16 17 -18 0
-27 -28 29 11 12 13 -16 -17 18 0
-27 -28 29 11 12 13 -16 -17 -18 31 0
-27 -28 29 11 12 -13 16 17 18 0
-27 -28 29 11 12 -13 16 17 -18 30 0
-27 -28 29 11 12 -13 16 -17 18 0
-27 -28 29 11 12 -13 16 -17 -18 0
-27 -28 29 11 12 -13 -16 17 18 0
-27 -28 29 11 12 -13 -16 17 -18 30 0
-27 -28 29 11 12 -13 -16 -17 18 31 0
-27 -28 29 11 12 -13 -16 -17 -18 35 0
-27 -28 29 11 -12 13 16 17 18 0
-27 -28 29 11 -12 13 16 17 -18 0
-27 -28 29 11 -12 13 16 -17 18 0
-27 -28 29 11 -12 13 16 -17 -18 0
-27 -28 29 11 -12 13 -16 17 18 0
-27 -28 29 11 -12 13 -16 17 -18 30 0
-27 -28 29 11 -12 13 -16 -17 18 0
-27 -28 29 11 -12 13 -16 -17 -18 0
-27 -28 29 11 -12 -13 16 17 18 0
-27 -28 29 11 -12 -13 16 17 -18 0
-27 -28 29 11 -12 -13 16 -17 18 30 0
-27 -28 29 11 -12 -13 16 -17 -18 0
-27 -28 29 11 -12 -13 -16 17 18 0
-27 -28 29 11 -12 -13 -16 17 -18 30 0
-27 -28 29 11 -12 -13 -16 -17 18 0
-27 -28 29 11 -12 -13 -16 -17 -18 0
-27 -28 29 -11 12 13 16 17 18 0
-27 -28 29 -11 12 13 16 17 -18 0
-27 -28 29 -11 12 13 16 -17 18 0
-27 -28 29 -11 12 13 16 -17 -18 30 0
-27 -28 29 -11 12 13 -16 17 18 30 0
-27 -28 29 -11 12 13 -16 17 -18 0
-27 -28 29 -11 12 13 -16 -17 18 31 0
-27 -28 29 -11 12 13 -16 -17 -18 0
-27 -28 29 -11 12 -13 16 17 18 0
-27 -28 29 -11 12 -13 16 17 -18 0
-27 -28 29 -11 12 -13 16 -17 18 0
-27 -28 29 -11 12 -13 16 -17 -18 0
-27 -28 29 -11 12 -13 -16 17 18 0
-27 -28 29 -11 12 -13 -16 17 -18 0
-27 -28 29 -11 12 -13 -16 -17 18 0
-27 -28 29 -11 12 -13 -16 -17 -18 30 0
-27 -28 29 -11 -12 13 16 17 18 0
-27 -28 29 -11 -12 13 16 17 -18 0
-27 -28 29 -11 -12 13 16 -17 18 0
-27 -28 29 -11 -12 13 16 -17 -18 0
-27 -28 29 -11 -12 13 -16 17 18 30 0
-27 -28 29 -11 -12 13 -16 17 -18 31 0
-27 -28 29 -11 -12 13 -16 -17 18 34 0
-27 -28 29 -11 -12 13 -16 -17 -18 0
-27 -28 29 -11 -12 -13 16 17 18 0
-27 -28 29 -11 -12 -13 16 17 -18 0
-27 -28 29 -11 -12 -13 16 -17 18 0
-27 -28 29 -11 -12 -13 16 -17 -18 30 0
-27 -28 29 -11 -12 -13 -16 17 18 35 0
-27 -28 29 -11 -12 -13 -16 17 -18 32 0
-27 -28 29 -11 -12 -13 -16 -17 18 0
-27 -28 29 -11 -12 -13 -16 -17 -18 0
-27 -28 -29 11 12 13 16 17 18 0
-27 -28 -29 11 12 13 16 17 -18 30 0
-27 -28 -29 11 12 13 16 -17 18 0
-27 -28 -29 11 12 13 16 -17 -18 0
-27 -28 -29 11 12 13 -16 17 18 0
-27 -28 -29 11 12 13 -16 17 -18 0
-27 -28 -29 11 12 13 -16 -17 18 0
-27 -28 -29 11 12 13 -16 -17 -18 0
-27 -28 -29 11 12 -13 16 17 18 0
-27 -28 -29 11 12 -13 16 17 -18 30 0
-27 -28 -29 11 12 -13 16 -17 18 0
-27 -28 -29 11 12 -13 16 -17 -18 0
-27 -28 -29 11 12 -13 -16 17 18 0
-27 -28 -29 11 12 -13 -16 17 -18 30 0
-27 -28 -29 11 12 -13 -16 -17 18 0
-27 -28 -29 11 12 -13 -16 -17 -18 32 0
-27 -28 -29 11 -12 13 16 17 18 0
-27 -28 -29 11 -12 13 16 17 -18 0
-27 -28 -29 11 -12 13 16 -17 18 0
-27 -28 -29 11 -12 13 16 -17 -18 0
-27 -28 -29 11 -12 13 -16 17 18 0
-27 -28 -29 11 -12 13 -16 17 -18 30 0
-27 -28 -29 11 -12 13 -16 -17 18 0
-27 -28 -29 11 -12 13 -16 -17 -18 31 0
-27 -28 -29 11 -12 -13 16 17 18 0
-27 -28 -29 11 -12 -13 16 17 -18 0
-27 -28 -29 11 -12 -13 16 -17 18 30 0
-27 -28 -29 11 -12 -13 16 -17 -18 0
-27 -28 -29 11 -12 -13 -16 17 18 0
-27 -28 -29 11 -12 -13 -16 17 -18 30 0
-27 -28 -29 11 -12 -13 -16 -17 18 0
-27 -28 -29 11 -12 -13 -16 -17 -18 31 0
-27 -28 -29 -11 12 13 16 17 18 0
-27 -28 -29 -11 12 13 16 17 -18 0
-27 -28 -29 -11 12 13 16 -17 18 0
-27 -28 -29 -11 12 13 16 -17 -18 30 0
-27 -28 -29 -11 12 13 -16 17 18 30 0
-27 -28 -29 -11 12 13 -16 17 -18 0
-27 -28 -29 -11 12 13 -16 -17 18 0
-27 -28 -29 -11 12 13 -16 -17 -18 31 0
-27 -28 -29 -11 12 -13 16 17 18 0
-27 -28 -29 -11 12 -13 16 17 -18 0
-27 -28 -29 -11 12 -13 16 -17 18 0
-27 -28 -29 -11 12 -13 16 -17 -18 0
-27 -28 -29 -11 12 -13 -16 17 18 0
-27 -28 -29 -11 12 -13 -16 17 -18 0
-27 -28 -29 -11 12 -13 -16 -17 18 0
-27 -28 -29 -11 12 -13 -16 -17 -18 30 0
-27 -28 -29 -11 -12 13 16 17 18 0
-27 -28 -29 -11 -12 13 16 17 -18 0
-27 -28 -29 -11 -12 13 16 -17 18 0
-27 -28 -29 -11 -12 13 16 -17 -18 0
-27 -28 -29 -11 -12 13 -16 17 18 30 0
-27 -28 -29 -11 -12 13 -16 17 -18 0
-27 -28 -29 -11 -12 13 -16 -17 18 34 0
-27 -28 -29 -11 -12 13 -16 -17 -18 31 0
-27 -28 -29 -11 -12 -13 16 17 18 0
-27 -28 -29 -11 -12 -13 16 17 -18 0
-27 -28 -29 -11 -12 -13 16 -17 18 0
-27 -28 -29 -11 -12 -13 16 -17 -18 30 0
-27 -28 -29 -11 -12 -13 -16 17 18 35 0
-27 -28 -29 -11 -12 -13 -16 17 -18 0
-27 -28 -29 -11 -12 -13 -16 -17 18 31 0
-27 -28 -29 -11 -12 -13 -16 -17 -18 31 0
